4803
4820
4941
4821
4872
4787
4868
4903
4867
4853
4777
4889
4885
4824
4877
4894
4915
4800
4912
4876
4859
4877
4849
4806
4797
4880
4834
4874
4897
4896
4871
4895
4889
4875
4873
4831
4950
4846
4900
4822
4836
4901
4915
4850
4903
4808
4855
4779
4827
4980
4813
4888
4880
4873
4912
4900
4948
4911
4859
4889
4860
4911
4870
4827
4816
4856
4849
4866
4896
4844
4839
4879
4916
4917
4851
4862
4907
4963
4819
4816
4889
4864
4945
4957
4918
4868
4872
4903
4870
4827
4912
4890
4742
4906
4907
4886
4831
4915
4871
4897
